NAME : 10_3_3_2_(22).dat
COMMENT : Henke, Speranza, Wäscher, 2015
TYPE : MCVRP
DIMENSION : 11
EDGE_WEIGHT_TYPE : DISTANCE_MATRIX
CAPACITY : 1000
VEHICLES : 2
PRODUCT TYPES : 3
COMPARTMENTS : 3
NODE_COORD_SECTION
1 50 50
2 80.99 42.44
3 33.34 2.56
4 87.09 68.77
5 7.82 43.13
6 1.61 8.36
7 0.72 78.29
8 44.83 93.97
9 92.27 97.19
10 18.93 61.65
11 61.38 21.24
DEMAND_SECTION
1 0 0 0
2 140 0 36
3 105 11 0
4 0 90 32
5 90 17 0
6 0 133 12
7 142 0 47
8 103 0 35
9 116 0 27
10 0 101 57
11 0 66 33
DEPOT_SECTION
1
EOF